(declare-fun v6 () (_ BitVec 9))
(declare-fun v8 () (_ BitVec 12))
(declare-fun v11 () (_ BitVec 3))
(assert
(let (($e4 (_ bv605 10)))
(let (($e5 (_ bv3 2)))
(let (($e12 (_ bv229 8)))
(let (($e13 (_ bv0 7)))
(let (($e27 (_ bv7 3)))
(let (($e134 (concat $e13 v11)))
(let (($e135 (bvand $e134 $e4)))
(let (($e136 (bvand (bvnot $e134) (bvnot $e4))))
(let (($e137 (bvand (bvnot $e136) (bvnot $e135))))
(let (($e139                    $e5      ))
(let (($e140 (concat $e139 $e12)))
(let (($e141 (bvand $e140 $e137)))
(let (($e1245                    $e27      ))
(let (($e1246 (concat $e1245        v6 )))
(let (($e1247      (=        v8  $e1246)         ))
(let (($e1248                    $e1247  ))
(let (($e1249             $e1248           ))
(let (($e1250                  $e1249 ))
(let (($e1351              $e1250          ))
(let (($e1352             $e1351 ))
              (ite        $e1352  $e141 $e137)
                                                                                                                                                                                                                                                                                                                                                                                                                                                                                                                                                                                                                                                                                                                                                                                                                                                                                                                                                                                                                                                                                                                                                                                                                                                                                                                                                                                                                                                                                                                                                                                                                                                                                                                                                                                                                                                                                                                                                                                                                                                                                                                                                                                                                                                                                                                                                                                                                                                                                                                                                                                                                                                                                                                                                                                                                                                                                                                                                                                                                                                                                                                                                                                                                                                                                                                                                                                                                                                                                                                                                                                                                                                                                                                                                                                                                                                                                                                                                                                                                                                                                                                                                                                                                                                                                                                                                                                                                                                                                                                                                                                                                                                                                                                                                                                                                                                                                                                                                                                                                                                                                                                                                                                                                                                                                                                                                ))                                                                                                    ))))))                                                                                                                                                                                                                                                                                                                                                                                                                                                                                                                                                                                                                                                                                                                                                                                                                                                                                                                                                                                                                                                                                                                                               ))) ))))                                                                               )             ))      ))   )
